
Gurobi 11.0.3 (linux64) logging started Thu Nov 21 23:06:40 2024

Set parameter LogFile to value "/home/yihong/Coding/OR_SUC/SUC_results_bigM100000_thread4/case24_ieee_rts_theta0.5_epsilon0.05_gurobi_seed890000_num_gen100_N_WDR100_load_scaling_factor1_exact_T8quadra_cost.txt"
Set parameter TimeLimit to value 3600
Gurobi Optimizer version 11.0.3 build v11.0.3rc0 (linux64 - "Ubuntu 20.04.6 LTS")

CPU model: AMD EPYC 7532 32-Core Processor, instruction set [SSE2|AVX|AVX2]
Thread count: 64 physical cores, 128 logical processors, using up to 4 threads

Optimize a model with 18955 rows, 10121 columns and 440954 nonzeros
Model fingerprint: 0x7cb88448
Model has 800 quadratic constraints
Variable types: 9221 continuous, 900 integer (900 binary)
Coefficient statistics:
  Matrix range     [1e-04, 1e+05]
  QMatrix range    [2e-03, 8e-03]
  QLMatrix range   [9e-02, 6e+01]
  Objective range  [1e+00, 1e+00]
  Bounds range     [1e+00, 1e+00]
  RHS range        [1e+00, 1e+05]
Presolve removed 15561 rows and 4412 columns
Presolve time: 0.12s
Presolved: 3394 rows, 5709 columns, 19720 nonzeros
Presolved model has 800 quadratic constraint(s)
Variable types: 4851 continuous, 858 integer (858 binary)

Root relaxation: objective 1.523031e+04, 2641 iterations, 0.04 seconds (0.05 work units)

    Nodes    |    Current Node    |     Objective Bounds      |     Work
 Expl Unexpl |  Obj  Depth IntInf | Incumbent    BestBd   Gap | It/Node Time

     0     0 15230.3073    0   17          - 15230.3073      -     -    0s
     0     0 141614.349    0  255          - 141614.349      -     -    0s
     0     0 142148.356    0  251          - 142148.356      -     -    0s
     0     0 244638.356    0   69          - 244638.356      -     -    0s
     0     0 244656.492    0   68          - 244656.492      -     -    0s
     0     0 244708.814    0   52          - 244708.814      -     -    0s
     0     0 244710.118    0   52          - 244710.118      -     -    0s
     0     0 244710.118    0   55          - 244710.118      -     -    0s
     0     0 244712.076    0   55          - 244712.076      -     -    0s
     0     2 244712.076    0   55          - 244712.076      -     -    0s
H   79    80                    244737.74242 244717.837  0.01%  18.8    1s
*   79    80              33    244737.74242 244717.837  0.01%  18.8    1s

Cutting planes:
  Gomory: 47
  Implied bound: 196
  MIR: 107
  Flow cover: 156

Explored 81 nodes (8476 simplex iterations) in 1.13 seconds (1.44 work units)
Thread count was 4 (of 128 available processors)

Solution count 2: 244738 244738 

Optimal solution found (tolerance 1.00e-03)
Warning: max constraint violation (2.1890e-07) exceeds tolerance
Best objective 2.447377424205e+05, best bound 2.447178371407e+05, gap 0.0081%
